p tw 25 1501 2 
1 3 
1 4 
1 5 
1 7 
1 9 
1 12 
1 14 
1 17 
1 19 
1 22 
1 24 
2 3 
2 4 
2 5 
2 8 
2 9 
2 16 
2 18 
2 20 
2 21 
2 22 
2 25 
3 4 
3 5 
3 6 
3 7 
3 10 
3 13 
3 14 
3 21 
3 23 
3 25 
4 5 
4 6 
4 8 
4 10 
4 11 
4 12 
4 15 
4 18 
4 19 
5 11 
5 13 
5 15 
5 16 
5 17 
5 20 
5 23 
5 24 
6 7 
6 8 
6 12 
6 13 
6 14 
6 15 
6 18 
6 20 
6 24 
6 25 
7 10 
7 12 
7 17 
7 18 
7 20 
7 21 
7 22 
7 23 
7 24 
8 9 
8 10 
8 12 
8 14 
8 15 
8 16 
8 17 
8 20 
8 21 
9 11 
9 12 
9 14 
9 19 
9 20 
9 21 
9 23 
9 24 
9 25 
10 11 
10 14 
10 16 
10 17 
10 18 
10 19 
10 21 
10 23 
11 12 
11 13 
11 17 
11 18 
11 19 
11 20 
11 23 
11 25 
12 15 
12 17 
12 22 
12 23 
12 25 
13 14 
13 15 
13 17 
13 19 
13 20 
13 21 
13 22 
13 25 
14 16 
14 17 
14 19 
14 24 
14 25 
15 16 
15 19 
15 21 
15 22 
15 23 
15 24 
16 17 
16 18 
16 22 
16 23 
16 24 
16 25 
17 20 
17 22 
18 19 
18 20 
18 22 
18 24 
18 25 
19 21 
19 22 
19 24 
20 21 
20 24 
21 22 
21 23 
22 25 
23 24 
23 25 
